(set-logic QF_S)
(declare-fun var_0xINPUT_189170 () String)
(assert (and (= (len var_0xINPUT_189170) 0) (= (len var_0xINPUT_189170) 0) (not (= var_0xINPUT_189170 "ND6MEXdqBD"))))
(check-sat var_0xINPUT_189170)